100
128
7
31
2
26
14
57
28
25
60
4
46
34
54
2
44
9
58
1
42
17
37
16
24
49
15
18
12
2
56
40
62
56
18
32
44
20
21
38
43
58
34
60
25
29
25
42
35
58
36
26
34
1
17
32
9
29
5
60
31
3
38
60
38
57
7
25
30
57
12
23
14
30
58
16
3
32
1
29
39
44
5
35
48
36
1
60
28
56
32
37
38
48
64
5
42
64
35
63
64
3